\* name *\
Minimize
OBJ: Init_Pat0 + Init_Pat1 + Init_Pat10 + Init_Pat11 + Init_Pat12 + Init_Pat13
 + Init_Pat14 + Init_Pat15 + Init_Pat16 + Init_Pat17 + Init_Pat18 + Init_Pat19
 + Init_Pat2 + Init_Pat20 + Init_Pat21 + Init_Pat22 + Init_Pat23 + Init_Pat24
 + Init_Pat25 + Init_Pat26 + Init_Pat27 + Init_Pat28 + Init_Pat29 + Init_Pat3
 + Init_Pat30 + Init_Pat31 + Init_Pat32 + Init_Pat33 + Init_Pat34 + Init_Pat35
 + Init_Pat36 + Init_Pat37 + Init_Pat38 + Init_Pat39 + Init_Pat4 + Init_Pat40
 + Init_Pat41 + Init_Pat42 + Init_Pat43 + Init_Pat44 + Init_Pat45 + Init_Pat5
 + Init_Pat6 + Init_Pat7 + Init_Pat8 + Init_Pat9 + Pat100 + Pat101 + Pat102
 + Pat103 + Pat104 + Pat105 + Pat106 + Pat107 + Pat108 + Pat109 + Pat110
 + Pat111 + Pat112 + Pat113 + Pat114 + Pat115 + Pat116 + Pat117 + Pat118
 + Pat46 + Pat47 + Pat48 + Pat49 + Pat50 + Pat51 + Pat52 + Pat53 + Pat54
 + Pat55 + Pat56 + Pat57 + Pat58 + Pat59 + Pat60 + Pat61 + Pat62 + Pat63
 + Pat64 + Pat65 + Pat66 + Pat67 + Pat68 + Pat69 + Pat70 + Pat71 + Pat72
 + Pat73 + Pat74 + Pat75 + Pat76 + Pat77 + Pat78 + Pat79 + Pat80 + Pat81
 + Pat82 + Pat83 + Pat84 + Pat85 + Pat86 + Pat87 + Pat88 + Pat89 + Pat90
 + Pat91 + Pat92 + Pat93 + Pat94 + Pat95 + Pat96 + Pat97 + Pat98 + Pat99
Subject To
C0: Init_Pat0 >= 45
C1: Init_Pat1 + 3 Pat60 + Pat89 + Pat98 >= 78
C10: Init_Pat10 + Pat108 + 2 Pat113 + 2 Pat65 + Pat75 >= 4
C11: Init_Pat11 + Pat106 + 6 Pat53 + 2 Pat84 >= 13
C12: Init_Pat12 + Pat112 >= 8
C13: Init_Pat13 + 2 Pat69 >= 78
C14: Init_Pat14 + Pat74 + Pat77 + Pat78 >= 82
C15: Init_Pat15 + 2 Pat70 >= 8
C16: Init_Pat16 >= 86
C17: Init_Pat17 + Pat116 + Pat79 + Pat80 + Pat82 + Pat86 + Pat89 + Pat97
 >= 100
C18: Init_Pat18 + Pat105 + Pat106 + Pat110 + Pat87 + Pat88 >= 83
C19: Init_Pat19 + Pat73 + Pat75 + Pat76 >= 4
C2: Init_Pat2 + 4 Pat58 + Pat80 + Pat85 + Pat93 >= 34
C20: Init_Pat20 + 3 Pat63 >= 86
C21: Init_Pat21 + 2 Pat72 >= 50
C22: Init_Pat22 + 2 Pat67 >= 17
C23: Init_Pat23 + Pat108 + Pat109 + Pat110 + 5 Pat54 + 2 Pat82 >= 44
C24: Init_Pat24 >= 77
C25: Init_Pat25 + 25 Pat47 + Pat50 + 2 Pat51 + 2 Pat55 + Pat75 + Pat76 + Pat79
 + Pat93 >= 27
C26: Init_Pat26 >= 34
C27: Init_Pat27 + 2 Pat71 >= 97
C28: Init_Pat28 + Pat100 + 2 Pat104 + 9 Pat49 + Pat73 + Pat83 + Pat87
 + 2 Pat96 >= 83
C29: Init_Pat29 + 100 Pat46 + 2 Pat48 + Pat49 + 2 Pat51 + 10 Pat52 + 10 Pat53
 + Pat78 + Pat79 >= 81
C3: Init_Pat3 + Pat108 + Pat109 + 2 Pat64 + Pat78 >= 96
C30: Init_Pat30 + Pat101 + 4 Pat55 + Pat67 + 2 Pat73 + 2 Pat74 + Pat81 + Pat86
 + Pat87 >= 84
C31: Init_Pat31 >= 92
C32: Init_Pat32 + Pat100 + Pat101 + Pat107 >= 100
C33: Init_Pat33 + 2 Pat102 + Pat105 + Pat112 + Pat113 + Pat115 + Pat117
 + 6 Pat52 + Pat77 + 2 Pat90 >= 19
C34: Init_Pat34 + 2 Pat68 >= 12
C35: Init_Pat35 + Pat118 + Pat81 + Pat83 + Pat90 + Pat92 + Pat95 + Pat98 >= 91
C36: Init_Pat36 + Pat110 + 8 Pat50 + Pat68 + Pat69 + Pat80 + Pat95 + Pat99
 >= 49
C37: Init_Pat37 + Pat103 + 2 Pat114 + 3 Pat59 + Pat79 + Pat92 >= 53
C38: Init_Pat38 >= 38
C39: Init_Pat39 + Pat102 + Pat103 + Pat84 + Pat85 + Pat94 >= 28
C4: Init_Pat4 + Pat104 + Pat111 >= 39
C40: Init_Pat40 + Pat55 + 5 Pat56 + Pat65 + Pat66 >= 25
C41: Init_Pat41 + Pat91 + Pat93 + Pat96 + Pat99 >= 93
C42: Init_Pat42 + Pat109 + Pat114 + 2 Pat115 + 2 Pat66 + Pat76 >= 71
C43: Init_Pat43 >= 25
C44: Init_Pat44 >= 56
C45: Init_Pat45 + Pat116 + 3 Pat62 >= 88
C5: Init_Pat5 + 4 Pat57 + Pat64 + Pat77 + Pat83 + Pat91 >= 60
C6: Init_Pat6 + Pat107 + Pat111 + 6 Pat51 + Pat54 + Pat81 + Pat86 + Pat88
 + 2 Pat94 + Pat99 >= 69
C7: Init_Pat7 + Pat117 >= 95
C8: Init_Pat8 + 2 Pat100 + Pat111 + 14 Pat48 + Pat57 + Pat85 + 3 Pat95 >= 3
C9: Init_Pat9 + Pat118 + 3 Pat61 + Pat97 >= 88
Bounds
 0 <= Init_Pat0
 0 <= Init_Pat1
 0 <= Init_Pat10
 0 <= Init_Pat11
 0 <= Init_Pat12
 0 <= Init_Pat13
 0 <= Init_Pat14
 0 <= Init_Pat15
 0 <= Init_Pat16
 0 <= Init_Pat17
 0 <= Init_Pat18
 0 <= Init_Pat19
 0 <= Init_Pat2
 0 <= Init_Pat20
 0 <= Init_Pat21
 0 <= Init_Pat22
 0 <= Init_Pat23
 0 <= Init_Pat24
 0 <= Init_Pat25
 0 <= Init_Pat26
 0 <= Init_Pat27
 0 <= Init_Pat28
 0 <= Init_Pat29
 0 <= Init_Pat3
 0 <= Init_Pat30
 0 <= Init_Pat31
 0 <= Init_Pat32
 0 <= Init_Pat33
 0 <= Init_Pat34
 0 <= Init_Pat35
 0 <= Init_Pat36
 0 <= Init_Pat37
 0 <= Init_Pat38
 0 <= Init_Pat39
 0 <= Init_Pat4
 0 <= Init_Pat40
 0 <= Init_Pat41
 0 <= Init_Pat42
 0 <= Init_Pat43
 0 <= Init_Pat44
 0 <= Init_Pat45
 0 <= Init_Pat5
 0 <= Init_Pat6
 0 <= Init_Pat7
 0 <= Init_Pat8
 0 <= Init_Pat9
 0 <= Pat100
 0 <= Pat101
 0 <= Pat102
 0 <= Pat103
 0 <= Pat104
 0 <= Pat105
 0 <= Pat106
 0 <= Pat107
 0 <= Pat108
 0 <= Pat109
 0 <= Pat110
 0 <= Pat111
 0 <= Pat112
 0 <= Pat113
 0 <= Pat114
 0 <= Pat115
 0 <= Pat116
 0 <= Pat117
 0 <= Pat118
 0 <= Pat46
 0 <= Pat47
 0 <= Pat48
 0 <= Pat49
 0 <= Pat50
 0 <= Pat51
 0 <= Pat52
 0 <= Pat53
 0 <= Pat54
 0 <= Pat55
 0 <= Pat56
 0 <= Pat57
 0 <= Pat58
 0 <= Pat59
 0 <= Pat60
 0 <= Pat61
 0 <= Pat62
 0 <= Pat63
 0 <= Pat64
 0 <= Pat65
 0 <= Pat66
 0 <= Pat67
 0 <= Pat68
 0 <= Pat69
 0 <= Pat70
 0 <= Pat71
 0 <= Pat72
 0 <= Pat73
 0 <= Pat74
 0 <= Pat75
 0 <= Pat76
 0 <= Pat77
 0 <= Pat78
 0 <= Pat79
 0 <= Pat80
 0 <= Pat81
 0 <= Pat82
 0 <= Pat83
 0 <= Pat84
 0 <= Pat85
 0 <= Pat86
 0 <= Pat87
 0 <= Pat88
 0 <= Pat89
 0 <= Pat90
 0 <= Pat91
 0 <= Pat92
 0 <= Pat93
 0 <= Pat94
 0 <= Pat95
 0 <= Pat96
 0 <= Pat97
 0 <= Pat98
 0 <= Pat99
Generals
Init_Pat0
Init_Pat1
Init_Pat10
Init_Pat11
Init_Pat12
Init_Pat13
Init_Pat14
Init_Pat15
Init_Pat16
Init_Pat17
Init_Pat18
Init_Pat19
Init_Pat2
Init_Pat20
Init_Pat21
Init_Pat22
Init_Pat23
Init_Pat24
Init_Pat25
Init_Pat26
Init_Pat27
Init_Pat28
Init_Pat29
Init_Pat3
Init_Pat30
Init_Pat31
Init_Pat32
Init_Pat33
Init_Pat34
Init_Pat35
Init_Pat36
Init_Pat37
Init_Pat38
Init_Pat39
Init_Pat4
Init_Pat40
Init_Pat41
Init_Pat42
Init_Pat43
Init_Pat44
Init_Pat45
Init_Pat5
Init_Pat6
Init_Pat7
Init_Pat8
Init_Pat9
Pat100
Pat101
Pat102
Pat103
Pat104
Pat105
Pat106
Pat107
Pat108
Pat109
Pat110
Pat111
Pat112
Pat113
Pat114
Pat115
Pat116
Pat117
Pat118
Pat46
Pat47
Pat48
Pat49
Pat50
Pat51
Pat52
Pat53
Pat54
Pat55
Pat56
Pat57
Pat58
Pat59
Pat60
Pat61
Pat62
Pat63
Pat64
Pat65
Pat66
Pat67
Pat68
Pat69
Pat70
Pat71
Pat72
Pat73
Pat74
Pat75
Pat76
Pat77
Pat78
Pat79
Pat80
Pat81
Pat82
Pat83
Pat84
Pat85
Pat86
Pat87
Pat88
Pat89
Pat90
Pat91
Pat92
Pat93
Pat94
Pat95
Pat96
Pat97
Pat98
Pat99
End
